p edge 20 43 5
v 3 5 14 17
v 5 1 2 6 7 11
v 5 4 9 12 18 19
v 5 3 8 10 16 20
v 2 13 15
e 1 7
e 1 14
e 1 17
e 2 7
e 2 9
e 2 11
e 2 13
e 2 14
e 2 15
e 3 7
e 3 12
e 3 18
e 4 9
e 5 8
e 5 10
e 5 11
e 6 13
e 6 15
e 6 16
e 6 17
e 6 19
e 7 13
e 7 15
e 8 12
e 8 13
e 8 14
e 8 20
e 9 13
e 9 14
e 9 17
e 10 11
e 10 15
e 10 18
e 11 13
e 12 19
e 13 15
e 13 18
e 14 15
e 14 18
e 14 19
e 15 17
e 16 19
e 18 19
